Version identifier: 12.10.0.0 | 2019-11-26 | 843d4de
CPXPARAM_LPMethod                                4
CPXPARAM_Threads                                 1
CPXPARAM_SolutionType                            2
CPXPARAM_TimeLimit                               10000
Tried aggregator 1 time.
LP Presolve eliminated 4709 rows and 11889 columns.
Aggregator did 3437 substitutions.
Reduced LP has 124191 rows, 429299 columns, and 949364 nonzeros.
Presolve time = 3.05 sec. (801.86 ticks)
Parallel mode: none, using 1 thread for barrier
Number of nonzeros in lower triangle of A*A' = 453337
Using Approximate Minimum Degree ordering
Total time for automatic ordering = 0.26 sec. (81.52 ticks)
Summary statistics for Cholesky factor:
  Rows in Factor            = 124191
  Integer space required    = 498280
  Total non-zeros in factor = 12011036
  Total FP ops to factor    = 3189585118
 Itn      Primal Obj        Dual Obj  Prim Inf Upper Inf  Dual Inf Inf Ratio
   0   5.3232146e+07  -2.0047112e+17  4.73e+07  2.22e+04  8.56e+06  1.00e+00
   1   8.8547909e+07  -2.0044943e+17  4.73e+07  2.22e+04  8.56e+06  4.28e-06
   2   1.0115787e+08  -2.0041019e+17  4.73e+07  2.22e+04  8.56e+06  1.43e-06
   3   1.2270373e+08  -2.0031653e+17  4.73e+07  2.22e+04  8.55e+06  5.65e-07
   4   1.4565972e+08  -2.0011057e+17  4.72e+07  2.21e+04  8.55e+06  2.78e-07
   5   1.5853469e+08  -1.9993031e+17  4.70e+07  2.21e+04  8.54e+06  1.62e-07
   6   1.9941016e+08  -1.9936328e+17  4.68e+07  2.19e+04  8.51e+06  8.11e-08
   7   2.4303463e+08  -1.9052221e+17  4.58e+07  2.15e+04  8.14e+06  1.93e-08
   8   4.8101675e+08  -1.7845588e+17  4.22e+07  1.98e+04  7.63e+06  8.57e-09
   9   1.1236496e+09  -1.7712305e+17  4.05e+07  1.90e+04  7.75e+06  6.42e-09
  10   1.9342340e+09  -1.5746985e+17  3.99e+07  1.87e+04  7.07e+06  4.98e-10
  11   9.0397382e+09  -1.4098912e+17  2.04e+07  9.58e+03  6.33e+06  4.44e-10
  12   1.1508284e+10  -7.8196836e+15  3.40e+06  1.60e+03  4.69e+05  1.28e-09
  13   4.5528281e+10  -2.0146234e+15  1.22e+06  5.72e+02  1.24e+05  1.86e-09
  14   4.2479284e+10  -1.7344068e+14  2.64e+05  1.24e+02  1.08e+04  1.87e-08
  15   4.4931709e+10  -1.2738983e+14  2.23e+05  1.04e+02  7.93e+03  2.27e-08
  16   4.5100941e+10  -1.2718648e+14  2.22e+05  1.04e+02  7.92e+03  2.27e-08
  17   4.5167746e+10  -1.2709259e+14  2.22e+05  1.04e+02  7.91e+03  2.27e-08
  18   4.7771183e+10  -1.2327096e+14  2.16e+05  1.01e+02  7.67e+03  2.27e-08
  19   6.2747297e+10  -9.7587302e+13  1.76e+05  8.27e+01  6.08e+03  2.30e-08
  20   9.1104822e+10  -6.0990353e+13  8.16e+04  3.82e+01  3.80e+03  2.59e-08
  21   8.9962702e+10  -5.9496633e+13  7.42e+04  3.48e+01  3.71e+03  2.63e-08
  22   8.6664991e+10  -5.2447593e+13  5.57e+04  2.60e+01  3.27e+03  2.83e-08
  23   7.9343557e+10  -3.8479564e+13  3.32e+04  1.56e+01  2.40e+03  3.44e-08
  24   7.3988478e+10  -2.4268459e+13  2.71e+04  1.27e+01  1.52e+03  4.76e-08
  25   4.6559194e+10  -1.4984734e+13  1.04e+04  4.87e+00  9.37e+02  6.96e-08
  26   4.6559948e+10  -1.4984652e+13  1.04e+04  4.87e+00  9.37e+02  6.96e-08
  27   3.0571661e+10  -6.5973542e+12  4.22e+03  1.97e+00  4.13e+02  1.38e-07
  28   2.9843775e+10  -6.3233801e+12  4.09e+03  1.91e+00  3.96e+02  1.43e-07
  29   2.9843939e+10  -6.3230072e+12  4.09e+03  1.91e+00  3.96e+02  1.43e-07
  30   2.9709419e+10  -6.3001709e+12  4.07e+03  1.90e+00  3.95e+02  1.44e-07
  31   2.9708623e+10  -6.3000567e+12  4.07e+03  1.90e+00  3.95e+02  1.44e-07
  32   2.9708593e+10  -6.3000537e+12  4.07e+03  1.90e+00  3.95e+02  1.44e-07
  33   2.9709637e+10  -6.3003217e+12  4.07e+03  1.91e+00  3.95e+02  1.44e-07
  34   2.9483720e+10  -6.0406751e+12  4.03e+03  1.89e+00  3.78e+02  1.49e-07
  35   2.9451468e+10  -6.0405394e+12  4.03e+03  1.89e+00  3.78e+02  1.49e-07
  36   2.9451101e+10  -5.8000696e+12  4.03e+03  1.89e+00  3.63e+02  1.55e-07
  37   2.9449889e+10  -5.7987657e+12  4.03e+03  1.89e+00  3.63e+02  1.55e-07
  38   2.9448830e+10  -5.7985493e+12  4.03e+03  1.89e+00  3.63e+02  1.55e-07
  39   2.9440567e+10  -5.7954193e+12  4.03e+03  1.89e+00  3.63e+02  1.55e-07
  40   2.9441410e+10  -5.7954073e+12  4.03e+03  1.89e+00  3.63e+02  1.55e-07
  41   2.9126316e+10  -5.4555409e+12  3.98e+03  1.87e+00  3.42e+02  1.64e-07
  42   2.9017577e+10  -5.4241007e+12  3.96e+03  1.86e+00  3.40e+02  1.65e-07
  43   2.9015013e+10  -5.4236774e+12  3.96e+03  1.86e+00  3.40e+02  1.65e-07
  44   2.7514526e+10  -5.3356530e+12  3.72e+03  1.74e+00  3.34e+02  1.68e-07
  45   2.6608915e+10  -5.2386377e+12  3.57e+03  1.67e+00  3.28e+02  1.71e-07
  46   2.6606655e+10  -5.2386024e+12  3.58e+03  1.67e+00  3.28e+02  1.71e-07
  47   2.6587827e+10  -5.2350435e+12  3.57e+03  1.68e+00  3.28e+02  1.71e-07
  48   2.6424563e+10  -5.1552027e+12  3.55e+03  1.66e+00  3.23e+02  1.74e-07
  49   2.6422074e+10  -5.1543574e+12  3.55e+03  1.67e+00  3.23e+02  1.74e-07
  50   2.6419752e+10  -5.1543542e+12  3.55e+03  1.66e+00  3.23e+02  1.74e-07
  51   2.6410301e+10  -5.1532330e+12  3.55e+03  1.66e+00  3.23e+02  1.74e-07
  52   2.6396761e+10  -5.1475381e+12  3.55e+03  1.66e+00  3.22e+02  1.74e-07
  53   2.6400118e+10  -5.1476044e+12  3.55e+03  1.66e+00  3.22e+02  1.74e-07
  54   2.6353066e+10  -5.1414444e+12  3.54e+03  1.66e+00  3.22e+02  1.74e-07
  55   2.6344641e+10  -5.1404279e+12  3.54e+03  1.66e+00  3.22e+02  1.74e-07
  56   2.6344679e+10  -5.1404013e+12  3.54e+03  1.66e+00  3.22e+02  1.74e-07
  57   2.6319556e+10  -5.1228142e+12  3.54e+03  1.66e+00  3.21e+02  1.75e-07
  58   2.6319471e+10  -5.1227873e+12  3.54e+03  1.66e+00  3.21e+02  1.75e-07
  59   2.6319431e+10  -5.1226376e+12  3.54e+03  1.66e+00  3.21e+02  1.75e-07
  60   2.6317051e+10  -5.1224602e+12  3.54e+03  1.67e+00  3.21e+02  1.75e-07
  61   2.6318119e+10  -5.1225897e+12  3.54e+03  1.66e+00  3.21e+02  1.75e-07
  62   2.6317403e+10  -5.1223713e+12  3.54e+03  1.67e+00  3.21e+02  1.75e-07
  63   2.6314197e+10  -5.1179887e+12  3.54e+03  1.66e+00  3.21e+02  1.75e-07
  64   2.6262863e+10  -5.1138076e+12  3.53e+03  1.67e+00  3.20e+02  1.75e-07
  65   2.6249884e+10  -5.1091790e+12  3.53e+03  1.66e+00  3.20e+02  1.75e-07
  66   2.6246930e+10  -5.1083615e+12  3.53e+03  1.67e+00  3.20e+02  1.75e-07
  67   2.6246747e+10  -5.1083242e+12  3.53e+03  1.67e+00  3.20e+02  1.75e-07
  68   2.6233690e+10  -5.1049648e+12  3.53e+03  1.67e+00  3.20e+02  1.75e-07
Barrier time = 56.70 sec. (86080.87 ticks)

Total time on 1 threads = 56.70 sec. (86080.87 ticks)
ERROR: AssertionError: MOI.get(model, MOI.TerminationStatus()) == MOI.INFEASIBLE
Stacktrace:
 [1] get at /home/mtanneau/.julia/packages/CPLEX/Hxpuk/src/MOI/MOI_wrapper.jl:2008 [inlined]
 [2] optimize!(::CPLEX.Optimizer) at /home/mtanneau/.julia/packages/CPLEX/Hxpuk/src/MOI/MOI_wrapper.jl:1911
 [3] optimize! at /home/mtanneau/.julia/packages/MathOptInterface/RmalA/src/Bridges/bridge_optimizer.jl:239 [inlined]
 [4] macro expansion at ./util.jl:234 [inlined]
 [5] run(::MathOptInterface.Bridges.LazyBridgeOptimizer{CPLEX.Optimizer}) at /home/mtanneau/projects/def-alodi/mtanneau/LPBenchmarks/src/LPBenchmark.jl:45
 [6] run_cplex(::String, ::String) at /home/mtanneau/projects/def-alodi/mtanneau/LPBenchmarks/src/cplex.jl:23
 [7] run_cplex(::String) at /home/mtanneau/projects/def-alodi/mtanneau/LPBenchmarks/src/cplex.jl:9
 [8] top-level scope at /home/mtanneau/projects/def-alodi/mtanneau/LPBenchmarks/src/cplex.jl:28
 [9] include(::Module, ::String) at ./Base.jl:377
 [10] exec_options(::Base.JLOptions) at ./client.jl:288
 [11] _start() at ./client.jl:484
Solver name: CPLEX
